# Solution for model Intensity-based (FB-DT3)
# Objective value = 34
x[1,0] 0
x[1,1] 0
x[1,2] 0
x[1,3] 0
x[1,4] 0
x[1,5] 0
x[1,6] 0
x[1,7] 0
x[1,8] 0
x[1,9] 0
x[1,10] 0
x[1,11] 0
x[1,12] 0
x[1,13] 0
x[1,14] 0
x[1,15] 0
x[1,16] 0
x[1,17] 1
x[1,18] 1
x[1,19] 1
x[1,20] 1
x[1,21] 1
x[1,22] 1
x[1,23] 1
x[1,24] 1
x[1,25] 1
x[1,26] 1
x[1,27] 1
x[1,28] 1
x[2,0] 1
x[2,1] 1
x[2,2] 1
x[2,3] 1
x[2,4] 1
x[2,5] 1
x[2,6] 1
x[2,7] 1
x[2,8] 1
x[2,9] 1
x[2,10] 1
x[2,11] 1
x[2,12] 1
x[2,13] 1
x[2,14] 1
x[2,15] 1
x[2,16] 1
x[2,17] 1
x[2,18] 1
x[2,19] 1
x[2,20] 1
x[2,21] 1
x[2,22] 1
x[2,23] 1
x[2,24] 1
x[3,0] 0
x[3,1] 0
x[3,2] 0
x[3,3] 0
x[3,4] 0
x[3,5] 0
x[3,6] 0
x[3,7] 0
x[3,8] 0
x[3,9] 0
x[3,10] 0
x[3,11] 0
x[3,12] 0
x[3,13] 0
x[3,14] 0
x[3,15] 0
x[3,16] 0
x[3,17] 0
x[3,18] 0
x[3,19] 0
x[3,20] 0
x[3,21] 0
x[3,22] 0
x[3,23] 0
x[3,24] 0
x[3,25] 1
x[3,26] 1
x[3,27] 1
x[3,28] 1
x[3,29] 1
x[3,30] 1
x[3,31] 1
x[3,32] 1
x[3,33] 1
x[3,34] 1
x[3,35] 1
x[3,36] 1
x[3,37] 1
x[3,38] 1
x[3,39] 1
x[3,40] 1
x[4,11] 1
x[4,12] 1
x[4,13] 1
x[4,14] 1
x[4,15] 1
x[4,16] 1
x[4,17] 1
x[4,18] 1
x[4,19] 1
x[4,20] 1
x[4,21] 1
x[4,22] 1
x[4,23] 1
x[4,24] 1
x[4,25] 1
x[4,26] 1
x[4,27] 1
x[4,28] 1
x[4,29] 1
x[4,30] 1
x[4,31] 1
x[4,32] 1
x[4,33] 1
x[4,34] 1
x[4,35] 1
x[5,20] 1
x[5,21] 1
x[5,22] 1
x[5,23] 1
x[5,24] 1
x[5,25] 1
x[5,26] 1
x[5,27] 1
x[5,28] 1
x[5,29] 1
x[5,30] 1
x[5,31] 1
x[5,32] 1
x[5,33] 1
x[5,34] 1
x[5,35] 1
x[6,21] 1
x[6,22] 1
x[6,23] 1
x[6,24] 1
x[6,25] 1
x[6,26] 1
x[6,27] 1
x[6,28] 1
x[6,29] 1
x[6,30] 1
x[6,31] 1
x[6,32] 1
x[6,33] 1
x[6,34] 1
x[6,35] 1
x[6,36] 1
x[6,37] 1
x[6,38] 1
x[6,39] 1
x[7,18] 0
x[7,19] 0
x[7,20] 0
x[7,21] 0
x[7,22] 0
x[7,23] 0
x[7,24] 1
x[7,25] 1
x[7,26] 1
x[7,27] 1
x[7,28] 1
x[7,29] 1
x[7,30] 1
x[7,31] 1
x[7,32] 1
x[7,33] 1
x[7,34] 1
x[7,35] 1
x[7,36] 1
x[7,37] 1
x[7,38] 1
x[7,39] 1
x[7,40] 1
x[7,41] 1
x[7,42] 1
x[7,43] 1
x[7,44] 1
x[7,45] 1
x[7,46] 1
x[7,47] 1
x[7,48] 1
x[7,49] 1
x[7,50] 1
y[1,0] 0
y[1,1] 0
y[1,2] 0
y[1,3] 0
y[1,4] 0
y[1,5] 0
y[1,6] 0
y[1,7] 0
y[1,8] 0
y[1,9] 0
y[1,10] 0
y[1,11] 0
y[1,12] 0
y[1,13] 0
y[1,14] 0
y[1,15] 0
y[1,16] 0
y[1,17] 0
y[1,18] 0
y[1,19] 1
y[1,20] 1
y[1,21] 1
y[1,22] 1
y[1,23] 1
y[1,24] 1
y[1,25] 1
y[1,26] 1
y[1,27] 1
y[1,28] 1
y[2,0] 0
y[2,1] 0
y[2,2] 0
y[2,3] 0
y[2,4] 0
y[2,5] 0
y[2,6] 0
y[2,7] 0
y[2,8] 0
y[2,9] 0
y[2,10] 0
y[2,11] 1
y[2,12] 1
y[2,13] 1
y[2,14] 1
y[2,15] 1
y[2,16] 1
y[2,17] 1
y[2,18] 1
y[2,19] 1
y[2,20] 1
y[2,21] 1
y[2,22] 1
y[2,23] 1
y[2,24] 1
y[3,0] 0
y[3,1] 0
y[3,2] 0
y[3,3] 0
y[3,4] 0
y[3,5] 0
y[3,6] 0
y[3,7] 0
y[3,8] 0
y[3,9] 0
y[3,10] 0
y[3,11] 0
y[3,12] 0
y[3,13] 0
y[3,14] 0
y[3,15] 0
y[3,16] 0
y[3,17] 0
y[3,18] 0
y[3,19] 0
y[3,20] 0
y[3,21] 0
y[3,22] 0
y[3,23] 0
y[3,24] 0
y[3,25] 0
y[3,26] 0
y[3,27] 0
y[3,28] 0
y[3,29] 0
y[3,30] 0
y[3,31] 0
y[3,32] 0
y[3,33] 0
y[3,34] 1
y[3,35] 1
y[3,36] 1
y[3,37] 1
y[3,38] 1
y[3,39] 1
y[3,40] 1
y[4,11] 0
y[4,12] 0
y[4,13] 0
y[4,14] 0
y[4,15] 0
y[4,16] 0
y[4,17] 0
y[4,18] 0
y[4,19] 0
y[4,20] 0
y[4,21] 1
y[4,22] 1
y[4,23] 1
y[4,24] 1
y[4,25] 1
y[4,26] 1
y[4,27] 1
y[4,28] 1
y[4,29] 1
y[4,30] 1
y[4,31] 1
y[4,32] 1
y[4,33] 1
y[4,34] 1
y[4,35] 1
y[5,20] 0
y[5,21] 0
y[5,22] 0
y[5,23] 0
y[5,24] 0
y[5,25] 1
y[5,26] 1
y[5,27] 1
y[5,28] 1
y[5,29] 1
y[5,30] 1
y[5,31] 1
y[5,32] 1
y[5,33] 1
y[5,34] 1
y[5,35] 1
y[6,21] 0
y[6,22] 0
y[6,23] 0
y[6,24] 1
y[6,25] 1
y[6,26] 1
y[6,27] 1
y[6,28] 1
y[6,29] 1
y[6,30] 1
y[6,31] 1
y[6,32] 1
y[6,33] 1
y[6,34] 1
y[6,35] 1
y[6,36] 1
y[6,37] 1
y[6,38] 1
y[6,39] 1
y[7,18] 0
y[7,19] 0
y[7,20] 0
y[7,21] 0
y[7,22] 0
y[7,23] 0
y[7,24] 0
y[7,25] 0
y[7,26] 0
y[7,27] 0
y[7,28] 0
y[7,29] 0
y[7,30] 0
y[7,31] 0
y[7,32] 0
y[7,33] 0
y[7,34] 1
y[7,35] 1
y[7,36] 1
y[7,37] 1
y[7,38] 1
y[7,39] 1
y[7,40] 1
y[7,41] 1
y[7,42] 1
y[7,43] 1
y[7,44] 1
y[7,45] 1
y[7,46] 1
y[7,47] 1
y[7,48] 1
y[7,49] 1
y[7,50] 1
delta[0,1,0] 1
delta[0,1,1] 0
delta[0,1,2] 1
delta[0,1,3] 0
delta[0,1,4] 0
delta[0,1,5] 1
delta[0,1,6] 0
delta[0,1,7] 0
delta[0,1,8] 0
delta[0,1,9] 0
delta[0,1,10] 0
delta[0,1,11] 0
delta[0,1,12] 1
delta[0,1,13] 0
delta[0,1,14] 0
delta[0,1,15] 0
delta[0,1,16] 0
delta[0,1,17] 1
delta[0,1,18] 0
delta[0,1,19] 1
delta[0,1,20] 0
delta[0,1,21] 1
delta[0,1,22] 0
delta[0,1,23] 0
delta[0,1,24] 0
delta[0,1,25] 0
delta[0,1,26] 0
delta[0,1,27] 0
delta[0,1,28] 1
delta[0,1,29] 0
delta[0,2,0] 1
delta[0,2,1] 0
delta[0,2,2] 1
delta[0,2,3] 0
delta[0,2,4] 0
delta[0,2,5] 0
delta[0,2,6] 0
delta[0,2,7] 1
delta[0,2,8] 0
delta[0,2,9] 0
delta[0,2,10] 0
delta[0,2,11] 1
delta[0,2,12] 0
delta[0,2,13] 0
delta[0,2,14] 1
delta[0,2,15] 0
delta[0,2,16] 0
delta[0,2,17] 1
delta[0,2,18] 0
delta[0,2,19] 0
delta[0,2,20] 0
delta[0,2,21] 1
delta[0,2,22] 0
delta[0,2,23] 1
delta[0,2,24] 0
delta[0,2,25] 1
delta[0,3,0] 1
delta[0,3,1] 0
delta[0,3,2] 0
delta[0,3,3] 0
delta[0,3,4] 0
delta[0,3,5] 0
delta[0,3,6] 0
delta[0,3,7] 1
delta[0,3,8] 0
delta[0,3,9] 1
delta[0,3,10] 0
delta[0,3,11] 1
delta[0,3,12] 0
delta[0,3,13] 0
delta[0,3,14] 1
delta[0,3,15] 0
delta[0,3,16] 0
delta[0,3,17] 0
delta[0,3,18] 1
delta[0,3,19] 0
delta[0,3,20] 0
delta[0,3,21] 0
delta[0,3,22] 0
delta[0,3,23] 1
delta[0,3,24] 0
delta[0,3,25] 1
delta[0,3,26] 0
delta[0,3,27] 0
delta[0,3,28] 0
delta[0,3,29] 0
delta[0,3,30] 0
delta[0,3,31] 0
delta[0,3,32] 1
delta[0,3,33] 0
delta[0,3,34] 1
delta[0,3,35] 0
delta[0,3,36] 0
delta[0,3,37] 0
delta[0,3,38] 0
delta[0,3,39] 0
delta[0,3,40] 0
delta[0,3,41] 1
delta[0,4,11] 1
delta[0,4,12] 0
delta[0,4,13] 1
delta[0,4,14] 0
delta[0,4,15] 0
delta[0,4,16] 0
delta[0,4,17] 1
delta[0,4,18] 0
delta[0,4,19] 1
delta[0,4,20] 0
delta[0,4,21] 1
delta[0,4,22] 0
delta[0,4,23] 0
delta[0,4,24] 0
delta[0,4,25] 0
delta[0,4,26] 0
delta[0,4,27] 0
delta[0,4,28] 0
delta[0,4,29] 0
delta[0,4,30] 0
delta[0,4,31] 0
delta[0,4,32] 0
delta[0,4,33] 0
delta[0,4,34] 0
delta[0,4,35] 1
delta[0,4,36] 0
delta[0,5,20] 1
delta[0,5,21] 0
delta[0,5,22] 0
delta[0,5,23] 1
delta[0,5,24] 0
delta[0,5,25] 1
delta[0,5,26] 0
delta[0,5,27] 0
delta[0,5,28] 0
delta[0,5,29] 0
delta[0,5,30] 0
delta[0,5,31] 0
delta[0,5,32] 0
delta[0,5,33] 0
delta[0,5,34] 1
delta[0,5,35] 0
delta[0,5,36] 1
delta[0,6,21] 1
delta[0,6,22] 0
delta[0,6,23] 0
delta[0,6,24] 1
delta[0,6,25] 0
delta[0,6,26] 1
delta[0,6,27] 0
delta[0,6,28] 0
delta[0,6,29] 1
delta[0,6,30] 0
delta[0,6,31] 0
delta[0,6,32] 0
delta[0,6,33] 0
delta[0,6,34] 0
delta[0,6,35] 0
delta[0,6,36] 0
delta[0,6,37] 0
delta[0,6,38] 0
delta[0,6,39] 0
delta[0,6,40] 1
delta[0,7,18] 1
delta[0,7,19] 0
delta[0,7,20] 0
delta[0,7,21] 0
delta[0,7,22] 0
delta[0,7,23] 0
delta[0,7,24] 1
delta[0,7,25] 0
delta[0,7,26] 0
delta[0,7,27] 0
delta[0,7,28] 0
delta[0,7,29] 0
delta[0,7,30] 0
delta[0,7,31] 0
delta[0,7,32] 1
delta[0,7,33] 0
delta[0,7,34] 1
delta[0,7,35] 0
delta[0,7,36] 0
delta[0,7,37] 0
delta[0,7,38] 0
delta[0,7,39] 0
delta[0,7,40] 0
delta[0,7,41] 0
delta[0,7,42] 0
delta[0,7,43] 0
delta[0,7,44] 0
delta[0,7,45] 0
delta[0,7,46] 0
delta[0,7,47] 0
delta[0,7,48] 0
delta[0,7,49] 0
delta[0,7,50] 1
delta[0,7,51] 0
delta[1,1,0] 1
delta[1,1,1] 0
delta[1,1,2] 1
delta[1,1,3] 0
delta[1,1,4] 0
delta[1,1,5] 0
delta[1,1,6] 0
delta[1,1,7] 1
delta[1,1,8] 0
delta[1,1,9] 0
delta[1,1,10] 0
delta[1,1,11] 0
delta[1,1,12] 0
delta[1,1,13] 0
delta[1,1,14] 0
delta[1,1,15] 0
delta[1,1,16] 0
delta[1,1,17] 1
delta[1,1,18] 0
delta[1,1,19] 1
delta[1,1,20] 0
delta[1,1,21] 1
delta[1,1,22] 0
delta[1,1,23] 0
delta[1,1,24] 0
delta[1,1,25] 0
delta[1,1,26] 0
delta[1,1,27] 0
delta[1,1,28] 1
delta[1,1,29] 0
delta[1,2,0] 0
delta[1,2,1] 0
delta[1,2,2] 0
delta[1,2,3] 0
delta[1,2,4] 0
delta[1,2,5] 0
delta[1,2,6] 0
delta[1,2,7] 0
delta[1,2,8] 0
delta[1,2,9] 0
delta[1,2,10] 0
delta[1,2,11] 0
delta[1,2,12] 0
delta[1,2,13] 0
delta[1,2,14] 0
delta[1,2,15] 0
delta[1,2,16] 0
delta[1,2,17] 0
delta[1,2,18] 0
delta[1,2,19] 0
delta[1,2,20] 0
delta[1,2,21] 0
delta[1,2,22] 0
delta[1,2,23] 0
delta[1,2,24] 0
delta[1,2,25] 0
delta[1,3,0] 1
delta[1,3,1] 0
delta[1,3,2] 0
delta[1,3,3] 0
delta[1,3,4] 0
delta[1,3,5] 0
delta[1,3,6] 0
delta[1,3,7] 1
delta[1,3,8] 0
delta[1,3,9] 1
delta[1,3,10] 0
delta[1,3,11] 0
delta[1,3,12] 0
delta[1,3,13] 0
delta[1,3,14] 1
delta[1,3,15] 0
delta[1,3,16] 0
delta[1,3,17] 1
delta[1,3,18] 0
delta[1,3,19] 0
delta[1,3,20] 0
delta[1,3,21] 0
delta[1,3,22] 0
delta[1,3,23] 1
delta[1,3,24] 0
delta[1,3,25] 1
delta[1,3,26] 0
delta[1,3,27] 0
delta[1,3,28] 0
delta[1,3,29] 0
delta[1,3,30] 0
delta[1,3,31] 0
delta[1,3,32] 0
delta[1,3,33] 0
delta[1,3,34] 1
delta[1,3,35] 0
delta[1,3,36] 0
delta[1,3,37] 0
delta[1,3,38] 0
delta[1,3,39] 0
delta[1,3,40] 0
delta[1,3,41] 1
delta[1,4,11] 0
delta[1,4,12] 0
delta[1,4,13] 0
delta[1,4,14] 0
delta[1,4,15] 0
delta[1,4,16] 0
delta[1,4,17] 0
delta[1,4,18] 0
delta[1,4,19] 0
delta[1,4,20] 0
delta[1,4,21] 0
delta[1,4,22] 0
delta[1,4,23] 0
delta[1,4,24] 0
delta[1,4,25] 0
delta[1,4,26] 0
delta[1,4,27] 0
delta[1,4,28] 0
delta[1,4,29] 0
delta[1,4,30] 0
delta[1,4,31] 0
delta[1,4,32] 0
delta[1,4,33] 0
delta[1,4,34] 0
delta[1,4,35] 0
delta[1,4,36] 0
delta[1,5,20] 0
delta[1,5,21] 0
delta[1,5,22] 0
delta[1,5,23] 0
delta[1,5,24] 0
delta[1,5,25] 0
delta[1,5,26] 0
delta[1,5,27] 0
delta[1,5,28] 0
delta[1,5,29] 0
delta[1,5,30] 0
delta[1,5,31] 0
delta[1,5,32] 0
delta[1,5,33] 0
delta[1,5,34] 0
delta[1,5,35] 0
delta[1,5,36] 0
delta[1,6,21] 0
delta[1,6,22] 0
delta[1,6,23] 0
delta[1,6,24] 0
delta[1,6,25] 0
delta[1,6,26] 0
delta[1,6,27] 0
delta[1,6,28] 0
delta[1,6,29] 0
delta[1,6,30] 0
delta[1,6,31] 0
delta[1,6,32] 0
delta[1,6,33] 0
delta[1,6,34] 0
delta[1,6,35] 0
delta[1,6,36] 0
delta[1,6,37] 0
delta[1,6,38] 0
delta[1,6,39] 0
delta[1,6,40] 0
delta[1,7,18] 0
delta[1,7,19] 0
delta[1,7,20] 0
delta[1,7,21] 0
delta[1,7,22] 0
delta[1,7,23] 0
delta[1,7,24] 0
delta[1,7,25] 0
delta[1,7,26] 0
delta[1,7,27] 0
delta[1,7,28] 0
delta[1,7,29] 0
delta[1,7,30] 0
delta[1,7,31] 0
delta[1,7,32] 0
delta[1,7,33] 0
delta[1,7,34] 0
delta[1,7,35] 0
delta[1,7,36] 0
delta[1,7,37] 0
delta[1,7,38] 0
delta[1,7,39] 0
delta[1,7,40] 0
delta[1,7,41] 0
delta[1,7,42] 0
delta[1,7,43] 0
delta[1,7,44] 0
delta[1,7,45] 0
delta[1,7,46] 0
delta[1,7,47] 0
delta[1,7,48] 0
delta[1,7,49] 0
delta[1,7,50] 0
delta[1,7,51] 0
delta[2,1,0] 1
delta[2,1,1] 0
delta[2,1,2] 1
delta[2,1,3] 0
delta[2,1,4] 0
delta[2,1,5] 1
delta[2,1,6] 0
delta[2,1,7] 0
delta[2,1,8] 0
delta[2,1,9] 0
delta[2,1,10] 0
delta[2,1,11] 0
delta[2,1,12] 1
delta[2,1,13] 0
delta[2,1,14] 0
delta[2,1,15] 0
delta[2,1,16] 0
delta[2,1,17] 1
delta[2,1,18] 0
delta[2,1,19] 1
delta[2,1,20] 0
delta[2,1,21] 1
delta[2,1,22] 0
delta[2,1,23] 0
delta[2,1,24] 0
delta[2,1,25] 0
delta[2,1,26] 0
delta[2,1,27] 0
delta[2,1,28] 1
delta[2,1,29] 0
delta[2,2,0] 1
delta[2,2,1] 0
delta[2,2,2] 1
delta[2,2,3] 0
delta[2,2,4] 0
delta[2,2,5] 0
delta[2,2,6] 0
delta[2,2,7] 0
delta[2,2,8] 0
delta[2,2,9] 0
delta[2,2,10] 0
delta[2,2,11] 1
delta[2,2,12] 0
delta[2,2,13] 0
delta[2,2,14] 0
delta[2,2,15] 0
delta[2,2,16] 0
delta[2,2,17] 1
delta[2,2,18] 0
delta[2,2,19] 0
delta[2,2,20] 0
delta[2,2,21] 1
delta[2,2,22] 0
delta[2,2,23] 1
delta[2,2,24] 0
delta[2,2,25] 1
delta[2,3,0] 0
delta[2,3,1] 0
delta[2,3,2] 0
delta[2,3,3] 0
delta[2,3,4] 0
delta[2,3,5] 0
delta[2,3,6] 0
delta[2,3,7] 0
delta[2,3,8] 0
delta[2,3,9] 0
delta[2,3,10] 0
delta[2,3,11] 0
delta[2,3,12] 0
delta[2,3,13] 0
delta[2,3,14] 0
delta[2,3,15] 0
delta[2,3,16] 0
delta[2,3,17] 0
delta[2,3,18] 0
delta[2,3,19] 0
delta[2,3,20] 0
delta[2,3,21] 0
delta[2,3,22] 0
delta[2,3,23] 0
delta[2,3,24] 0
delta[2,3,25] 0
delta[2,3,26] 0
delta[2,3,27] 0
delta[2,3,28] 0
delta[2,3,29] 0
delta[2,3,30] 0
delta[2,3,31] 0
delta[2,3,32] 0
delta[2,3,33] 0
delta[2,3,34] 0
delta[2,3,35] 0
delta[2,3,36] 0
delta[2,3,37] 0
delta[2,3,38] 0
delta[2,3,39] 0
delta[2,3,40] 0
delta[2,3,41] 0
delta[2,4,11] 0
delta[2,4,12] 0
delta[2,4,13] 0
delta[2,4,14] 0
delta[2,4,15] 0
delta[2,4,16] 0
delta[2,4,17] 0
delta[2,4,18] 0
delta[2,4,19] 0
delta[2,4,20] 0
delta[2,4,21] 0
delta[2,4,22] 0
delta[2,4,23] 0
delta[2,4,24] 0
delta[2,4,25] 0
delta[2,4,26] 0
delta[2,4,27] 0
delta[2,4,28] 0
delta[2,4,29] 0
delta[2,4,30] 0
delta[2,4,31] 0
delta[2,4,32] 0
delta[2,4,33] 0
delta[2,4,34] 0
delta[2,4,35] 0
delta[2,4,36] 0
delta[2,5,20] 0
delta[2,5,21] 0
delta[2,5,22] 0
delta[2,5,23] 0
delta[2,5,24] 0
delta[2,5,25] 0
delta[2,5,26] 0
delta[2,5,27] 0
delta[2,5,28] 0
delta[2,5,29] 0
delta[2,5,30] 0
delta[2,5,31] 0
delta[2,5,32] 0
delta[2,5,33] 0
delta[2,5,34] 0
delta[2,5,35] 0
delta[2,5,36] 0
delta[2,6,21] 1
delta[2,6,22] 0
delta[2,6,23] 0
delta[2,6,24] 1
delta[2,6,25] 0
delta[2,6,26] 1
delta[2,6,27] 0
delta[2,6,28] 0
delta[2,6,29] 1
delta[2,6,30] 0
delta[2,6,31] 0
delta[2,6,32] 0
delta[2,6,33] 0
delta[2,6,34] 0
delta[2,6,35] 0
delta[2,6,36] 0
delta[2,6,37] 0
delta[2,6,38] 0
delta[2,6,39] 0
delta[2,6,40] 1
delta[2,7,18] 1
delta[2,7,19] 0
delta[2,7,20] 0
delta[2,7,21] 0
delta[2,7,22] 0
delta[2,7,23] 0
delta[2,7,24] 1
delta[2,7,25] 0
delta[2,7,26] 1
delta[2,7,27] 0
delta[2,7,28] 0
delta[2,7,29] 0
delta[2,7,30] 0
delta[2,7,31] 0
delta[2,7,32] 1
delta[2,7,33] 0
delta[2,7,34] 1
delta[2,7,35] 0
delta[2,7,36] 0
delta[2,7,37] 0
delta[2,7,38] 0
delta[2,7,39] 0
delta[2,7,40] 0
delta[2,7,41] 0
delta[2,7,42] 0
delta[2,7,43] 0
delta[2,7,44] 0
delta[2,7,45] 0
delta[2,7,46] 0
delta[2,7,47] 0
delta[2,7,48] 0
delta[2,7,49] 0
delta[2,7,50] 1
delta[2,7,51] 0
delta[3,1,0] 1
delta[3,1,1] 0
delta[3,1,2] 1
delta[3,1,3] 0
delta[3,1,4] 0
delta[3,1,5] 0
delta[3,1,6] 0
delta[3,1,7] 1
delta[3,1,8] 0
delta[3,1,9] 0
delta[3,1,10] 0
delta[3,1,11] 0
delta[3,1,12] 0
delta[3,1,13] 0
delta[3,1,14] 0
delta[3,1,15] 0
delta[3,1,16] 0
delta[3,1,17] 1
delta[3,1,18] 0
delta[3,1,19] 1
delta[3,1,20] 0
delta[3,1,21] 1
delta[3,1,22] 0
delta[3,1,23] 0
delta[3,1,24] 0
delta[3,1,25] 0
delta[3,1,26] 0
delta[3,1,27] 0
delta[3,1,28] 1
delta[3,1,29] 0
delta[3,2,0] 1
delta[3,2,1] 0
delta[3,2,2] 1
delta[3,2,3] 0
delta[3,2,4] 0
delta[3,2,5] 0
delta[3,2,6] 0
delta[3,2,7] 0
delta[3,2,8] 0
delta[3,2,9] 0
delta[3,2,10] 0
delta[3,2,11] 1
delta[3,2,12] 0
delta[3,2,13] 0
delta[3,2,14] 0
delta[3,2,15] 0
delta[3,2,16] 0
delta[3,2,17] 1
delta[3,2,18] 0
delta[3,2,19] 0
delta[3,2,20] 0
delta[3,2,21] 1
delta[3,2,22] 0
delta[3,2,23] 1
delta[3,2,24] 0
delta[3,2,25] 1
delta[3,3,0] 0
delta[3,3,1] 0
delta[3,3,2] 0
delta[3,3,3] 0
delta[3,3,4] 0
delta[3,3,5] 0
delta[3,3,6] 0
delta[3,3,7] 0
delta[3,3,8] 0
delta[3,3,9] 0
delta[3,3,10] 0
delta[3,3,11] 0
delta[3,3,12] 0
delta[3,3,13] 0
delta[3,3,14] 0
delta[3,3,15] 0
delta[3,3,16] 0
delta[3,3,17] 0
delta[3,3,18] 0
delta[3,3,19] 0
delta[3,3,20] 0
delta[3,3,21] 0
delta[3,3,22] 0
delta[3,3,23] 0
delta[3,3,24] 0
delta[3,3,25] 0
delta[3,3,26] 0
delta[3,3,27] 0
delta[3,3,28] 0
delta[3,3,29] 0
delta[3,3,30] 0
delta[3,3,31] 0
delta[3,3,32] 0
delta[3,3,33] 0
delta[3,3,34] 0
delta[3,3,35] 0
delta[3,3,36] 0
delta[3,3,37] 0
delta[3,3,38] 0
delta[3,3,39] 0
delta[3,3,40] 0
delta[3,3,41] 0
delta[3,4,11] 1
delta[3,4,12] 0
delta[3,4,13] 1
delta[3,4,14] 0
delta[3,4,15] 0
delta[3,4,16] 0
delta[3,4,17] 0
delta[3,4,18] 0
delta[3,4,19] 0
delta[3,4,20] 0
delta[3,4,21] 1
delta[3,4,22] 0
delta[3,4,23] 0
delta[3,4,24] 0
delta[3,4,25] 0
delta[3,4,26] 0
delta[3,4,27] 0
delta[3,4,28] 0
delta[3,4,29] 0
delta[3,4,30] 0
delta[3,4,31] 0
delta[3,4,32] 0
delta[3,4,33] 0
delta[3,4,34] 0
delta[3,4,35] 1
delta[3,4,36] 0
delta[3,5,20] 1
delta[3,5,21] 0
delta[3,5,22] 0
delta[3,5,23] 1
delta[3,5,24] 0
delta[3,5,25] 1
delta[3,5,26] 0
delta[3,5,27] 0
delta[3,5,28] 0
delta[3,5,29] 0
delta[3,5,30] 0
delta[3,5,31] 0
delta[3,5,32] 0
delta[3,5,33] 0
delta[3,5,34] 1
delta[3,5,35] 0
delta[3,5,36] 1
delta[3,6,21] 0
delta[3,6,22] 0
delta[3,6,23] 0
delta[3,6,24] 0
delta[3,6,25] 0
delta[3,6,26] 0
delta[3,6,27] 0
delta[3,6,28] 0
delta[3,6,29] 0
delta[3,6,30] 0
delta[3,6,31] 0
delta[3,6,32] 0
delta[3,6,33] 0
delta[3,6,34] 0
delta[3,6,35] 0
delta[3,6,36] 0
delta[3,6,37] 0
delta[3,6,38] 0
delta[3,6,39] 0
delta[3,6,40] 0
delta[3,7,18] 0
delta[3,7,19] 0
delta[3,7,20] 0
delta[3,7,21] 0
delta[3,7,22] 0
delta[3,7,23] 0
delta[3,7,24] 0
delta[3,7,25] 0
delta[3,7,26] 0
delta[3,7,27] 0
delta[3,7,28] 0
delta[3,7,29] 0
delta[3,7,30] 0
delta[3,7,31] 0
delta[3,7,32] 0
delta[3,7,33] 0
delta[3,7,34] 0
delta[3,7,35] 0
delta[3,7,36] 0
delta[3,7,37] 0
delta[3,7,38] 0
delta[3,7,39] 0
delta[3,7,40] 0
delta[3,7,41] 0
delta[3,7,42] 0
delta[3,7,43] 0
delta[3,7,44] 0
delta[3,7,45] 0
delta[3,7,46] 0
delta[3,7,47] 0
delta[3,7,48] 0
delta[3,7,49] 0
delta[3,7,50] 0
delta[3,7,51] 0
delta[4,1,0] 0
delta[4,1,1] 0
delta[4,1,2] 0
delta[4,1,3] 0
delta[4,1,4] 0
delta[4,1,5] 0
delta[4,1,6] 0
delta[4,1,7] 0
delta[4,1,8] 0
delta[4,1,9] 0
delta[4,1,10] 0
delta[4,1,11] 0
delta[4,1,12] 0
delta[4,1,13] 0
delta[4,1,14] 0
delta[4,1,15] 0
delta[4,1,16] 0
delta[4,1,17] 0
delta[4,1,18] 0
delta[4,1,19] 0
delta[4,1,20] 0
delta[4,1,21] 0
delta[4,1,22] 0
delta[4,1,23] 0
delta[4,1,24] 0
delta[4,1,25] 0
delta[4,1,26] 0
delta[4,1,27] 0
delta[4,1,28] 0
delta[4,1,29] 0
delta[4,2,0] 1
delta[4,2,1] 0
delta[4,2,2] 1
delta[4,2,3] 0
delta[4,2,4] 0
delta[4,2,5] 0
delta[4,2,6] 0
delta[4,2,7] 0
delta[4,2,8] 0
delta[4,2,9] 0
delta[4,2,10] 0
delta[4,2,11] 1
delta[4,2,12] 0
delta[4,2,13] 0
delta[4,2,14] 0
delta[4,2,15] 0
delta[4,2,16] 0
delta[4,2,17] 1
delta[4,2,18] 0
delta[4,2,19] 0
delta[4,2,20] 0
delta[4,2,21] 1
delta[4,2,22] 0
delta[4,2,23] 1
delta[4,2,24] 0
delta[4,2,25] 1
delta[4,3,0] 0
delta[4,3,1] 0
delta[4,3,2] 0
delta[4,3,3] 0
delta[4,3,4] 0
delta[4,3,5] 0
delta[4,3,6] 0
delta[4,3,7] 0
delta[4,3,8] 0
delta[4,3,9] 0
delta[4,3,10] 0
delta[4,3,11] 0
delta[4,3,12] 0
delta[4,3,13] 0
delta[4,3,14] 0
delta[4,3,15] 0
delta[4,3,16] 0
delta[4,3,17] 0
delta[4,3,18] 0
delta[4,3,19] 0
delta[4,3,20] 0
delta[4,3,21] 0
delta[4,3,22] 0
delta[4,3,23] 0
delta[4,3,24] 0
delta[4,3,25] 0
delta[4,3,26] 0
delta[4,3,27] 0
delta[4,3,28] 0
delta[4,3,29] 0
delta[4,3,30] 0
delta[4,3,31] 0
delta[4,3,32] 0
delta[4,3,33] 0
delta[4,3,34] 0
delta[4,3,35] 0
delta[4,3,36] 0
delta[4,3,37] 0
delta[4,3,38] 0
delta[4,3,39] 0
delta[4,3,40] 0
delta[4,3,41] 0
delta[4,4,11] 1
delta[4,4,12] 0
delta[4,4,13] 1
delta[4,4,14] 0
delta[4,4,15] 0
delta[4,4,16] 0
delta[4,4,17] 0
delta[4,4,18] 0
delta[4,4,19] 0
delta[4,4,20] 0
delta[4,4,21] 1
delta[4,4,22] 0
delta[4,4,23] 0
delta[4,4,24] 0
delta[4,4,25] 0
delta[4,4,26] 0
delta[4,4,27] 0
delta[4,4,28] 0
delta[4,4,29] 0
delta[4,4,30] 0
delta[4,4,31] 0
delta[4,4,32] 0
delta[4,4,33] 0
delta[4,4,34] 0
delta[4,4,35] 1
delta[4,4,36] 0
delta[4,5,20] 0
delta[4,5,21] 0
delta[4,5,22] 0
delta[4,5,23] 0
delta[4,5,24] 0
delta[4,5,25] 0
delta[4,5,26] 0
delta[4,5,27] 0
delta[4,5,28] 0
delta[4,5,29] 0
delta[4,5,30] 0
delta[4,5,31] 0
delta[4,5,32] 0
delta[4,5,33] 0
delta[4,5,34] 0
delta[4,5,35] 0
delta[4,5,36] 0
delta[4,6,21] 1
delta[4,6,22] 0
delta[4,6,23] 0
delta[4,6,24] 1
delta[4,6,25] 0
delta[4,6,26] 1
delta[4,6,27] 0
delta[4,6,28] 0
delta[4,6,29] 1
delta[4,6,30] 0
delta[4,6,31] 0
delta[4,6,32] 0
delta[4,6,33] 0
delta[4,6,34] 0
delta[4,6,35] 0
delta[4,6,36] 0
delta[4,6,37] 0
delta[4,6,38] 0
delta[4,6,39] 0
delta[4,6,40] 1
delta[4,7,18] 0
delta[4,7,19] 0
delta[4,7,20] 0
delta[4,7,21] 0
delta[4,7,22] 0
delta[4,7,23] 0
delta[4,7,24] 0
delta[4,7,25] 0
delta[4,7,26] 0
delta[4,7,27] 0
delta[4,7,28] 0
delta[4,7,29] 0
delta[4,7,30] 0
delta[4,7,31] 0
delta[4,7,32] 0
delta[4,7,33] 0
delta[4,7,34] 0
delta[4,7,35] 0
delta[4,7,36] 0
delta[4,7,37] 0
delta[4,7,38] 0
delta[4,7,39] 0
delta[4,7,40] 0
delta[4,7,41] 0
delta[4,7,42] 0
delta[4,7,43] 0
delta[4,7,44] 0
delta[4,7,45] 0
delta[4,7,46] 0
delta[4,7,47] 0
delta[4,7,48] 0
delta[4,7,49] 0
delta[4,7,50] 0
delta[4,7,51] 0
q[0,1,0] 0
q[0,1,1] 0
q[0,1,2] 0
q[0,1,3] 0
q[0,1,4] 0
q[0,1,5] 0
q[0,1,6] 0
q[0,1,7] 0
q[0,1,8] 0
q[0,1,9] 0
q[0,1,10] 0
q[0,1,11] 0
q[0,1,12] 0
q[0,1,13] 0
q[0,1,14] 0
q[0,1,15] 0
q[0,1,16] 0
q[0,1,17] 3
q[0,1,18] 3
q[0,1,19] 0
q[0,1,20] 0
q[0,1,21] 0
q[0,1,22] 0
q[0,1,23] 0
q[0,1,24] 0
q[0,1,25] 0
q[0,1,26] 0
q[0,1,27] 0
q[0,1,28] 0
q[0,1,-1] 0
q[0,1,29] 0
q[0,2,0] 4.3750000000000080e+00
q[0,2,1] 4.3750000000000080e+00
q[0,2,2] 2.9166666666666665e+00
q[0,2,3] 2.9166666666666665e+00
q[0,2,4] 2.9166666666666665e+00
q[0,2,5] 2.9166666666666665e+00
q[0,2,6] 2.9166666666666665e+00
q[0,2,7] 2.9166666666666665e+00
q[0,2,8] 2.9166666666666634e+00
q[0,2,9] 2.9166666666666603e+00
q[0,2,10] 2.9166666666666572e+00
q[0,2,11] 0
q[0,2,12] 0
q[0,2,13] 0
q[0,2,14] 0
q[0,2,15] 0
q[0,2,16] 0
q[0,2,17] 0
q[0,2,18] 0
q[0,2,19] 0
q[0,2,20] 0
q[0,2,21] 0
q[0,2,22] 0
q[0,2,23] 0
q[0,2,24] 0
q[0,2,-1] 0
q[0,2,25] 0
q[0,3,0] 0
q[0,3,1] 0
q[0,3,2] 0
q[0,3,3] 0
q[0,3,4] 0
q[0,3,5] 0
q[0,3,6] 0
q[0,3,7] 0
q[0,3,8] 0
q[0,3,9] 0
q[0,3,10] 0
q[0,3,11] 0
q[0,3,12] 0
q[0,3,13] 0
q[0,3,14] 0
q[0,3,15] 0
q[0,3,16] 0
q[0,3,17] 0
q[0,3,18] 0
q[0,3,19] 0
q[0,3,20] 0
q[0,3,21] 0
q[0,3,22] 0
q[0,3,23] 0
q[0,3,24] 0
q[0,3,25] 3
q[0,3,26] 3.0000000000000018e+00
q[0,3,27] 3
q[0,3,28] 3
q[0,3,29] 3.0000000000000018e+00
q[0,3,30] 3.0000000000000018e+00
q[0,3,31] 3.0000000000000018e+00
q[0,3,32] 3.0000000000000018e+00
q[0,3,33] 3.0000000000000018e+00
q[0,3,34] 0
q[0,3,35] 0
q[0,3,36] 0
q[0,3,37] 0
q[0,3,38] 0
q[0,3,39] 0
q[0,3,40] 0
q[0,3,-1] 0
q[0,3,41] 0
q[0,4,11] 4.0000000000000036e+00
q[0,4,12] 4.0000000000000036e+00
q[0,4,13] 2
q[0,4,14] 2
q[0,4,15] 2
q[0,4,16] 2
q[0,4,17] 2
q[0,4,18] 2
q[0,4,19] 2
q[0,4,20] 1.9999999999999918e+00
q[0,4,21] 0
q[0,4,22] 0
q[0,4,23] 0
q[0,4,24] 0
q[0,4,25] 0
q[0,4,26] 0
q[0,4,27] 0
q[0,4,28] 0
q[0,4,29] 0
q[0,4,30] 0
q[0,4,31] 0
q[0,4,32] 0
q[0,4,33] 0
q[0,4,34] 0
q[0,4,35] 0
q[0,4,10] 0
q[0,4,36] 0
q[0,5,20] 2
q[0,5,21] 2
q[0,5,22] 2
q[0,5,23] 2
q[0,5,24] 2
q[0,5,25] 0
q[0,5,26] 0
q[0,5,27] 0
q[0,5,28] 0
q[0,5,29] 0
q[0,5,30] 0
q[0,5,31] 0
q[0,5,32] 0
q[0,5,33] 0
q[0,5,34] 0
q[0,5,35] 0
q[0,5,19] 0
q[0,5,36] 0
q[0,6,21] 1.6666666666666667e+00
q[0,6,22] 1.6666666666666667e+00
q[0,6,23] 1.6666666666666667e+00
q[0,6,24] 0
q[0,6,25] 0
q[0,6,26] 0
q[0,6,27] 0
q[0,6,28] 0
q[0,6,29] 0
q[0,6,30] 0
q[0,6,31] 0
q[0,6,32] 0
q[0,6,33] 0
q[0,6,34] 0
q[0,6,35] 0
q[0,6,36] 0
q[0,6,37] 0
q[0,6,38] 0
q[0,6,39] 0
q[0,6,20] 0
q[0,6,40] 0
q[0,7,18] 0
q[0,7,19] 0
q[0,7,20] 0
q[0,7,21] 0
q[0,7,22] 0
q[0,7,23] 0
q[0,7,24] 2
q[0,7,25] 2
q[0,7,26] 2
q[0,7,27] 2
q[0,7,28] 2
q[0,7,29] 2
q[0,7,30] 2
q[0,7,31] 2
q[0,7,32] 2
q[0,7,33] 2
q[0,7,34] 0
q[0,7,35] 0
q[0,7,36] 0
q[0,7,37] 0
q[0,7,38] 0
q[0,7,39] 0
q[0,7,40] 0
q[0,7,41] 0
q[0,7,42] 0
q[0,7,43] 0
q[0,7,44] 0
q[0,7,45] 0
q[0,7,46] 0
q[0,7,47] 0
q[0,7,48] 0
q[0,7,49] 0
q[0,7,50] 0
q[0,7,17] 0
q[0,7,51] 0
q[1,1,0] 0
q[1,1,1] 0
q[1,1,2] 0
q[1,1,3] 0
q[1,1,4] 0
q[1,1,5] 0
q[1,1,6] 0
q[1,1,7] 0
q[1,1,8] 0
q[1,1,9] 0
q[1,1,10] 0
q[1,1,11] 0
q[1,1,12] 0
q[1,1,13] 0
q[1,1,14] 0
q[1,1,15] 0
q[1,1,16] 0
q[1,1,17] 4
q[1,1,18] 4
q[1,1,19] 0
q[1,1,20] 0
q[1,1,21] 0
q[1,1,22] 0
q[1,1,23] 0
q[1,1,24] 0
q[1,1,25] 0
q[1,1,26] 0
q[1,1,27] 0
q[1,1,28] 0
q[1,1,-1] 0
q[1,1,29] 0
q[1,2,0] 0
q[1,2,1] 0
q[1,2,2] 0
q[1,2,3] 0
q[1,2,4] 0
q[1,2,5] 0
q[1,2,6] 0
q[1,2,7] 0
q[1,2,8] 0
q[1,2,9] 0
q[1,2,10] 0
q[1,2,11] 0
q[1,2,12] 0
q[1,2,13] 0
q[1,2,14] 0
q[1,2,15] 0
q[1,2,16] 0
q[1,2,17] 0
q[1,2,18] 0
q[1,2,19] 0
q[1,2,20] 0
q[1,2,21] 0
q[1,2,22] 0
q[1,2,23] 0
q[1,2,24] 0
q[1,2,-1] 0
q[1,2,25] 0
q[1,3,0] 0
q[1,3,1] 0
q[1,3,2] 0
q[1,3,3] 0
q[1,3,4] 0
q[1,3,5] 0
q[1,3,6] 0
q[1,3,7] 0
q[1,3,8] 0
q[1,3,9] 0
q[1,3,10] 0
q[1,3,11] 0
q[1,3,12] 0
q[1,3,13] 0
q[1,3,14] 0
q[1,3,15] 0
q[1,3,16] 0
q[1,3,17] 0
q[1,3,18] 0
q[1,3,19] 0
q[1,3,20] 0
q[1,3,21] 0
q[1,3,22] 0
q[1,3,23] 0
q[1,3,24] 0
q[1,3,25] 4
q[1,3,26] 4
q[1,3,27] 4
q[1,3,28] 4
q[1,3,29] 4
q[1,3,30] 4
q[1,3,31] 4
q[1,3,32] 4
q[1,3,33] 4
q[1,3,34] 0
q[1,3,35] 0
q[1,3,36] 0
q[1,3,37] 0
q[1,3,38] 0
q[1,3,39] 0
q[1,3,40] 0
q[1,3,-1] 0
q[1,3,41] 0
q[1,4,11] 0
q[1,4,12] 0
q[1,4,13] 0
q[1,4,14] 0
q[1,4,15] 0
q[1,4,16] 0
q[1,4,17] 0
q[1,4,18] 0
q[1,4,19] 0
q[1,4,20] 0
q[1,4,21] 0
q[1,4,22] 0
q[1,4,23] 0
q[1,4,24] 0
q[1,4,25] 0
q[1,4,26] 0
q[1,4,27] 0
q[1,4,28] 0
q[1,4,29] 0
q[1,4,30] 0
q[1,4,31] 0
q[1,4,32] 0
q[1,4,33] 0
q[1,4,34] 0
q[1,4,35] 0
q[1,4,10] 0
q[1,4,36] 0
q[1,5,20] 0
q[1,5,21] 0
q[1,5,22] 0
q[1,5,23] 0
q[1,5,24] 0
q[1,5,25] 0
q[1,5,26] 0
q[1,5,27] 0
q[1,5,28] 0
q[1,5,29] 0
q[1,5,30] 0
q[1,5,31] 0
q[1,5,32] 0
q[1,5,33] 0
q[1,5,34] 0
q[1,5,35] 0
q[1,5,19] 0
q[1,5,36] 0
q[1,6,21] 0
q[1,6,22] 0
q[1,6,23] 0
q[1,6,24] 0
q[1,6,25] 0
q[1,6,26] 0
q[1,6,27] 0
q[1,6,28] 0
q[1,6,29] 0
q[1,6,30] 0
q[1,6,31] 0
q[1,6,32] 0
q[1,6,33] 0
q[1,6,34] 0
q[1,6,35] 0
q[1,6,36] 0
q[1,6,37] 0
q[1,6,38] 0
q[1,6,39] 0
q[1,6,20] 0
q[1,6,40] 0
q[1,7,18] 0
q[1,7,19] 0
q[1,7,20] 0
q[1,7,21] 0
q[1,7,22] 0
q[1,7,23] 0
q[1,7,24] 0
q[1,7,25] 0
q[1,7,26] 0
q[1,7,27] 0
q[1,7,28] 0
q[1,7,29] 0
q[1,7,30] 0
q[1,7,31] 0
q[1,7,32] 0
q[1,7,33] 0
q[1,7,34] 0
q[1,7,35] 0
q[1,7,36] 0
q[1,7,37] 0
q[1,7,38] 0
q[1,7,39] 0
q[1,7,40] 0
q[1,7,41] 0
q[1,7,42] 0
q[1,7,43] 0
q[1,7,44] 0
q[1,7,45] 0
q[1,7,46] 0
q[1,7,47] 0
q[1,7,48] 0
q[1,7,49] 0
q[1,7,50] 0
q[1,7,17] 0
q[1,7,51] 0
q[2,1,0] 0
q[2,1,1] 0
q[2,1,2] 0
q[2,1,3] 0
q[2,1,4] 0
q[2,1,5] 0
q[2,1,6] 0
q[2,1,7] 0
q[2,1,8] 0
q[2,1,9] 0
q[2,1,10] 0
q[2,1,11] 0
q[2,1,12] 0
q[2,1,13] 0
q[2,1,14] 0
q[2,1,15] 0
q[2,1,16] 0
q[2,1,17] 1
q[2,1,18] 1
q[2,1,19] 0
q[2,1,20] 0
q[2,1,21] 0
q[2,1,22] 0
q[2,1,23] 0
q[2,1,24] 0
q[2,1,25] 0
q[2,1,26] 0
q[2,1,27] 0
q[2,1,28] 0
q[2,1,-1] 0
q[2,1,29] 0
q[2,2,0] 3
q[2,2,1] 3
q[2,2,2] 3
q[2,2,3] 3
q[2,2,4] 3
q[2,2,5] 3
q[2,2,6] 3
q[2,2,7] 3
q[2,2,8] 3
q[2,2,9] 3
q[2,2,10] 3
q[2,2,11] 0
q[2,2,12] 0
q[2,2,13] 0
q[2,2,14] 0
q[2,2,15] 0
q[2,2,16] 0
q[2,2,17] 0
q[2,2,18] 0
q[2,2,19] 0
q[2,2,20] 0
q[2,2,21] 0
q[2,2,22] 0
q[2,2,23] 0
q[2,2,24] 0
q[2,2,-1] 0
q[2,2,25] 0
q[2,3,0] 0
q[2,3,1] 0
q[2,3,2] 0
q[2,3,3] 0
q[2,3,4] 0
q[2,3,5] 0
q[2,3,6] 0
q[2,3,7] 0
q[2,3,8] 0
q[2,3,9] 0
q[2,3,10] 0
q[2,3,11] 0
q[2,3,12] 0
q[2,3,13] 0
q[2,3,14] 0
q[2,3,15] 0
q[2,3,16] 0
q[2,3,17] 0
q[2,3,18] 0
q[2,3,19] 0
q[2,3,20] 0
q[2,3,21] 0
q[2,3,22] 0
q[2,3,23] 0
q[2,3,24] 0
q[2,3,25] 0
q[2,3,26] 0
q[2,3,27] 0
q[2,3,28] 0
q[2,3,29] 0
q[2,3,30] 0
q[2,3,31] 0
q[2,3,32] 0
q[2,3,33] 0
q[2,3,34] 0
q[2,3,35] 0
q[2,3,36] 0
q[2,3,37] 0
q[2,3,38] 0
q[2,3,39] 0
q[2,3,40] 0
q[2,3,-1] 0
q[2,3,41] 0
q[2,4,11] 0
q[2,4,12] 0
q[2,4,13] 0
q[2,4,14] 0
q[2,4,15] 0
q[2,4,16] 0
q[2,4,17] 0
q[2,4,18] 0
q[2,4,19] 0
q[2,4,20] 0
q[2,4,21] 0
q[2,4,22] 0
q[2,4,23] 0
q[2,4,24] 0
q[2,4,25] 0
q[2,4,26] 0
q[2,4,27] 0
q[2,4,28] 0
q[2,4,29] 0
q[2,4,30] 0
q[2,4,31] 0
q[2,4,32] 0
q[2,4,33] 0
q[2,4,34] 0
q[2,4,35] 0
q[2,4,10] 0
q[2,4,36] 0
q[2,5,20] 0
q[2,5,21] 0
q[2,5,22] 0
q[2,5,23] 0
q[2,5,24] 0
q[2,5,25] 0
q[2,5,26] 0
q[2,5,27] 0
q[2,5,28] 0
q[2,5,29] 0
q[2,5,30] 0
q[2,5,31] 0
q[2,5,32] 0
q[2,5,33] 0
q[2,5,34] 0
q[2,5,35] 0
q[2,5,19] 0
q[2,5,36] 0
q[2,6,21] 3
q[2,6,22] 3
q[2,6,23] 3
q[2,6,24] 0
q[2,6,25] 0
q[2,6,26] 0
q[2,6,27] 0
q[2,6,28] 0
q[2,6,29] 0
q[2,6,30] 0
q[2,6,31] 0
q[2,6,32] 0
q[2,6,33] 0
q[2,6,34] 0
q[2,6,35] 0
q[2,6,36] 0
q[2,6,37] 0
q[2,6,38] 0
q[2,6,39] 0
q[2,6,20] 0
q[2,6,40] 0
q[2,7,18] 0
q[2,7,19] 0
q[2,7,20] 0
q[2,7,21] 0
q[2,7,22] 0
q[2,7,23] 0
q[2,7,24] 3
q[2,7,25] 3
q[2,7,26] 3
q[2,7,27] 3
q[2,7,28] 3
q[2,7,29] 3
q[2,7,30] 3
q[2,7,31] 3
q[2,7,32] 3
q[2,7,33] 3
q[2,7,34] 0
q[2,7,35] 0
q[2,7,36] 0
q[2,7,37] 0
q[2,7,38] 0
q[2,7,39] 0
q[2,7,40] 0
q[2,7,41] 0
q[2,7,42] 0
q[2,7,43] 0
q[2,7,44] 0
q[2,7,45] 0
q[2,7,46] 0
q[2,7,47] 0
q[2,7,48] 0
q[2,7,49] 0
q[2,7,50] 0
q[2,7,17] 0
q[2,7,51] 0
q[3,1,0] 0
q[3,1,1] 0
q[3,1,2] 0
q[3,1,3] 0
q[3,1,4] 0
q[3,1,5] 0
q[3,1,6] 0
q[3,1,7] 0
q[3,1,8] 0
q[3,1,9] 0
q[3,1,10] 0
q[3,1,11] 0
q[3,1,12] 0
q[3,1,13] 0
q[3,1,14] 0
q[3,1,15] 0
q[3,1,16] 0
q[3,1,17] 2
q[3,1,18] 2
q[3,1,19] 0
q[3,1,20] 0
q[3,1,21] 0
q[3,1,22] 0
q[3,1,23] 0
q[3,1,24] 0
q[3,1,25] 0
q[3,1,26] 0
q[3,1,27] 0
q[3,1,28] 0
q[3,1,-1] 0
q[3,1,29] 0
q[3,2,0] 1
q[3,2,1] 1
q[3,2,2] 1
q[3,2,3] 1
q[3,2,4] 1
q[3,2,5] 1
q[3,2,6] 1
q[3,2,7] 1
q[3,2,8] 1
q[3,2,9] 1
q[3,2,10] 1
q[3,2,11] 0
q[3,2,12] 0
q[3,2,13] 0
q[3,2,14] 0
q[3,2,15] 0
q[3,2,16] 0
q[3,2,17] 0
q[3,2,18] 0
q[3,2,19] 0
q[3,2,20] 0
q[3,2,21] 0
q[3,2,22] 0
q[3,2,23] 0
q[3,2,24] 0
q[3,2,-1] 0
q[3,2,25] 0
q[3,3,0] 0
q[3,3,1] 0
q[3,3,2] 0
q[3,3,3] 0
q[3,3,4] 0
q[3,3,5] 0
q[3,3,6] 0
q[3,3,7] 0
q[3,3,8] 0
q[3,3,9] 0
q[3,3,10] 0
q[3,3,11] 0
q[3,3,12] 0
q[3,3,13] 0
q[3,3,14] 0
q[3,3,15] 0
q[3,3,16] 0
q[3,3,17] 0
q[3,3,18] 0
q[3,3,19] 0
q[3,3,20] 0
q[3,3,21] 0
q[3,3,22] 0
q[3,3,23] 0
q[3,3,24] 0
q[3,3,25] 0
q[3,3,26] 0
q[3,3,27] 0
q[3,3,28] 0
q[3,3,29] 0
q[3,3,30] 0
q[3,3,31] 0
q[3,3,32] 0
q[3,3,33] 0
q[3,3,34] 0
q[3,3,35] 0
q[3,3,36] 0
q[3,3,37] 0
q[3,3,38] 0
q[3,3,39] 0
q[3,3,40] 0
q[3,3,-1] 0
q[3,3,41] 0
q[3,4,11] 1
q[3,4,12] 1
q[3,4,13] 1
q[3,4,14] 1
q[3,4,15] 1
q[3,4,16] 1
q[3,4,17] 9.9999999999999778e-01
q[3,4,18] 1
q[3,4,19] 9.9999999999999067e-01
q[3,4,20] 1
q[3,4,21] 0
q[3,4,22] 0
q[3,4,23] 0
q[3,4,24] 0
q[3,4,25] 0
q[3,4,26] 0
q[3,4,27] 0
q[3,4,28] 0
q[3,4,29] 0
q[3,4,30] 0
q[3,4,31] 0
q[3,4,32] 0
q[3,4,33] 0
q[3,4,34] 0
q[3,4,35] 0
q[3,4,10] 0
q[3,4,36] 0
q[3,5,20] 1
q[3,5,21] 1
q[3,5,22] 1
q[3,5,23] 2
q[3,5,24] 2
q[3,5,25] 0
q[3,5,26] 0
q[3,5,27] 0
q[3,5,28] 0
q[3,5,29] 0
q[3,5,30] 0
q[3,5,31] 0
q[3,5,32] 0
q[3,5,33] 0
q[3,5,34] 0
q[3,5,35] 0
q[3,5,19] 0
q[3,5,36] 0
q[3,6,21] 0
q[3,6,22] 0
q[3,6,23] 0
q[3,6,24] 0
q[3,6,25] 0
q[3,6,26] 0
q[3,6,27] 0
q[3,6,28] 0
q[3,6,29] 0
q[3,6,30] 0
q[3,6,31] 0
q[3,6,32] 0
q[3,6,33] 0
q[3,6,34] 0
q[3,6,35] 0
q[3,6,36] 0
q[3,6,37] 0
q[3,6,38] 0
q[3,6,39] 0
q[3,6,20] 0
q[3,6,40] 0
q[3,7,18] 0
q[3,7,19] 0
q[3,7,20] 0
q[3,7,21] 0
q[3,7,22] 0
q[3,7,23] 0
q[3,7,24] 0
q[3,7,25] 0
q[3,7,26] 0
q[3,7,27] 0
q[3,7,28] 0
q[3,7,29] 0
q[3,7,30] 0
q[3,7,31] 0
q[3,7,32] 0
q[3,7,33] 0
q[3,7,34] 0
q[3,7,35] 0
q[3,7,36] 0
q[3,7,37] 0
q[3,7,38] 0
q[3,7,39] 0
q[3,7,40] 0
q[3,7,41] 0
q[3,7,42] 0
q[3,7,43] 0
q[3,7,44] 0
q[3,7,45] 0
q[3,7,46] 0
q[3,7,47] 0
q[3,7,48] 0
q[3,7,49] 0
q[3,7,50] 0
q[3,7,17] 0
q[3,7,51] 0
q[4,1,0] 0
q[4,1,1] 0
q[4,1,2] 0
q[4,1,3] 0
q[4,1,4] 0
q[4,1,5] 0
q[4,1,6] 0
q[4,1,7] 0
q[4,1,8] 0
q[4,1,9] 0
q[4,1,10] 0
q[4,1,11] 0
q[4,1,12] 0
q[4,1,13] 0
q[4,1,14] 0
q[4,1,15] 0
q[4,1,16] 0
q[4,1,17] 0
q[4,1,18] 0
q[4,1,19] 0
q[4,1,20] 0
q[4,1,21] 0
q[4,1,22] 0
q[4,1,23] 0
q[4,1,24] 0
q[4,1,25] 0
q[4,1,26] 0
q[4,1,27] 0
q[4,1,28] 0
q[4,1,-1] 0
q[4,1,29] 0
q[4,2,0] 3
q[4,2,1] 3
q[4,2,2] 3
q[4,2,3] 3
q[4,2,4] 3
q[4,2,5] 3
q[4,2,6] 3
q[4,2,7] 3
q[4,2,8] 3
q[4,2,9] 3
q[4,2,10] 3
q[4,2,11] 0
q[4,2,12] 0
q[4,2,13] 0
q[4,2,14] 0
q[4,2,15] 0
q[4,2,16] 0
q[4,2,17] 0
q[4,2,18] 0
q[4,2,19] 0
q[4,2,20] 0
q[4,2,21] 0
q[4,2,22] 0
q[4,2,23] 0
q[4,2,24] 0
q[4,2,-1] 0
q[4,2,25] 0
q[4,3,0] 0
q[4,3,1] 0
q[4,3,2] 0
q[4,3,3] 0
q[4,3,4] 0
q[4,3,5] 0
q[4,3,6] 0
q[4,3,7] 0
q[4,3,8] 0
q[4,3,9] 0
q[4,3,10] 0
q[4,3,11] 0
q[4,3,12] 0
q[4,3,13] 0
q[4,3,14] 0
q[4,3,15] 0
q[4,3,16] 0
q[4,3,17] 0
q[4,3,18] 0
q[4,3,19] 0
q[4,3,20] 0
q[4,3,21] 0
q[4,3,22] 0
q[4,3,23] 0
q[4,3,24] 0
q[4,3,25] 0
q[4,3,26] 0
q[4,3,27] 0
q[4,3,28] 0
q[4,3,29] 0
q[4,3,30] 0
q[4,3,31] 0
q[4,3,32] 0
q[4,3,33] 0
q[4,3,34] 0
q[4,3,35] 0
q[4,3,36] 0
q[4,3,37] 0
q[4,3,38] 0
q[4,3,39] 0
q[4,3,40] 0
q[4,3,-1] 0
q[4,3,41] 0
q[4,4,11] 2
q[4,4,12] 2
q[4,4,13] 2
q[4,4,14] 2
q[4,4,15] 2
q[4,4,16] 2
q[4,4,17] 2
q[4,4,18] 2
q[4,4,19] 2
q[4,4,20] 2
q[4,4,21] 0
q[4,4,22] 0
q[4,4,23] 0
q[4,4,24] 0
q[4,4,25] 0
q[4,4,26] 0
q[4,4,27] 0
q[4,4,28] 0
q[4,4,29] 0
q[4,4,30] 0
q[4,4,31] 0
q[4,4,32] 0
q[4,4,33] 0
q[4,4,34] 0
q[4,4,35] 0
q[4,4,10] 0
q[4,4,36] 0
q[4,5,20] 0
q[4,5,21] 0
q[4,5,22] 0
q[4,5,23] 0
q[4,5,24] 0
q[4,5,25] 0
q[4,5,26] 0
q[4,5,27] 0
q[4,5,28] 0
q[4,5,29] 0
q[4,5,30] 0
q[4,5,31] 0
q[4,5,32] 0
q[4,5,33] 0
q[4,5,34] 0
q[4,5,35] 0
q[4,5,19] 0
q[4,5,36] 0
q[4,6,21] 1
q[4,6,22] 1
q[4,6,23] 1
q[4,6,24] 0
q[4,6,25] 0
q[4,6,26] 0
q[4,6,27] 0
q[4,6,28] 0
q[4,6,29] 0
q[4,6,30] 0
q[4,6,31] 0
q[4,6,32] 0
q[4,6,33] 0
q[4,6,34] 0
q[4,6,35] 0
q[4,6,36] 0
q[4,6,37] 0
q[4,6,38] 0
q[4,6,39] 0
q[4,6,20] 0
q[4,6,40] 0
q[4,7,18] 0
q[4,7,19] 0
q[4,7,20] 0
q[4,7,21] 0
q[4,7,22] 0
q[4,7,23] 0
q[4,7,24] 0
q[4,7,25] 0
q[4,7,26] 0
q[4,7,27] 0
q[4,7,28] 0
q[4,7,29] 0
q[4,7,30] 0
q[4,7,31] 0
q[4,7,32] 0
q[4,7,33] 0
q[4,7,34] 0
q[4,7,35] 0
q[4,7,36] 0
q[4,7,37] 0
q[4,7,38] 0
q[4,7,39] 0
q[4,7,40] 0
q[4,7,41] 0
q[4,7,42] 0
q[4,7,43] 0
q[4,7,44] 0
q[4,7,45] 0
q[4,7,46] 0
q[4,7,47] 0
q[4,7,48] 0
q[4,7,49] 0
q[4,7,50] 0
q[4,7,17] 0
q[4,7,51] 0
v[1,0] 0
v[1,1] 0
v[1,2] 0
v[1,3] 0
v[1,4] 0
v[1,5] 0
v[1,6] 0
v[1,7] 0
v[1,8] 0
v[1,9] 0
v[1,10] 0
v[1,11] 0
v[1,12] 0
v[1,13] 0
v[1,14] 0
v[1,15] 0
v[1,16] 0
v[1,17] 0
v[1,18] 0
v[1,19] 1
v[1,20] 1
v[1,21] 1
v[1,22] 1
v[1,23] 1
v[1,24] 1
v[1,25] 1
v[1,26] 1
v[1,27] 1
v[1,28] 1
v[1,29] 1
v[2,0] 0
v[2,1] 1.2500000000000022e-01
v[2,2] 2.5000000000000044e-01
v[2,3] 3.3333333333333376e-01
v[2,4] 4.1666666666666707e-01
v[2,5] 5.0000000000000044e-01
v[2,6] 5.8333333333333381e-01
v[2,7] 6.6666666666666718e-01
v[2,8] 7.5000000000000056e-01
v[2,9] 8.3333333333333381e-01
v[2,10] 9.1666666666666696e-01
v[2,11] 1
v[2,12] 1
v[2,13] 1
v[2,14] 1
v[2,15] 1
v[2,16] 1
v[2,17] 1
v[2,18] 1
v[2,19] 1
v[2,20] 1
v[2,21] 1
v[2,22] 1
v[2,23] 1
v[2,24] 1
v[2,25] 1
v[3,0] 0
v[3,1] 0
v[3,2] 0
v[3,3] 0
v[3,4] 0
v[3,5] 0
v[3,6] 0
v[3,7] 0
v[3,8] 0
v[3,9] 0
v[3,10] 0
v[3,11] 0
v[3,12] 0
v[3,13] 0
v[3,14] 0
v[3,15] 0
v[3,16] 0
v[3,17] 0
v[3,18] 0
v[3,19] 0
v[3,20] 0
v[3,21] 0
v[3,22] 0
v[3,23] 0
v[3,24] 0
v[3,25] 0
v[3,26] 1.1111111111110938e-01
v[3,27] 2.2222222222222077e-01
v[3,28] 3.3333333333333193e-01
v[3,29] 4.4444444444444298e-01
v[3,30] 5.5555555555555436e-01
v[3,31] 6.6666666666666574e-01
v[3,32] 7.7777777777777712e-01
v[3,33] 8.8888888888888884e-01
v[3,34] 1
v[3,35] 1
v[3,36] 1
v[3,37] 1
v[3,38] 1
v[3,39] 1
v[3,40] 1
v[3,41] 1
v[4,11] 0
v[4,12] 1.6666666666666682e-01
v[4,13] 3.3333333333333365e-01
v[4,14] 4.1666666666666696e-01
v[4,15] 5.0000000000000033e-01
v[4,16] 5.8333333333333359e-01
v[4,17] 6.6666666666666696e-01
v[4,18] 7.5000000000000033e-01
v[4,19] 8.3333333333333359e-01
v[4,20] 9.1666666666666696e-01
v[4,21] 1
v[4,22] 1
v[4,23] 1
v[4,24] 1
v[4,25] 1
v[4,26] 1
v[4,27] 1
v[4,28] 1
v[4,29] 1
v[4,30] 1
v[4,31] 1
v[4,32] 1
v[4,33] 1
v[4,34] 1
v[4,35] 1
v[4,36] 1
v[5,20] 0
v[5,21] 0
v[5,22] 3.3333333333333331e-01
v[5,23] 6.6666666666666663e-01
v[5,24] 1
v[5,25] 1
v[5,26] 1
v[5,27] 1
v[5,28] 1
v[5,29] 1
v[5,30] 1
v[5,31] 1
v[5,32] 1
v[5,33] 1
v[5,34] 1
v[5,35] 1
v[5,36] 1
v[6,21] 0
v[6,22] 3.3333333333333376e-01
v[6,23] 6.6666666666666752e-01
v[6,24] 1
v[6,25] 1
v[6,26] 1
v[6,27] 1
v[6,28] 1
v[6,29] 1
v[6,30] 1
v[6,31] 1
v[6,32] 1
v[6,33] 1
v[6,34] 1
v[6,35] 1
v[6,36] 1
v[6,37] 1
v[6,38] 1
v[6,39] 1
v[6,40] 1
v[7,18] 0
v[7,19] 0
v[7,20] 0
v[7,21] 0
v[7,22] 0
v[7,23] 0
v[7,24] 0
v[7,25] 1.0000000000000049e-01
v[7,26] 2.0000000000000076e-01
v[7,27] 3.0000000000000082e-01
v[7,28] 4.0000000000000108e-01
v[7,29] 5.0000000000000133e-01
v[7,30] 6.0000000000000175e-01
v[7,31] 7.0000000000000173e-01
v[7,32] 8.0000000000000193e-01
v[7,33] 9.0000000000000213e-01
v[7,34] 1
v[7,35] 1
v[7,36] 1
v[7,37] 1
v[7,38] 1
v[7,39] 1
v[7,40] 1
v[7,41] 1
v[7,42] 1
v[7,43] 1
v[7,44] 1
v[7,45] 1
v[7,46] 1
v[7,47] 1
v[7,48] 1
v[7,49] 1
v[7,50] 1
v[7,51] 1
C_max 34
